data;
param nombreJob := 5;
param nombreRessource := 3;
param duree := 1 8 2 8 3 5 4 3 5 6;
param capaciteRessource := 1 6 2 10 3 19;
param besoinRessource : 1 2 3 :=
                    1   4 2 1
                    2   4 3 10
                    3   4 7 3
                    4   1 3 1
                    5   1 4 7;
end;

